(define-fun T ((%init Bool) ($envposx$0 Int) ($envposy$0 Int) ($posx$0 Int) ($posy$0 Int) ($ok1$0 Bool) ($ok2$0 Bool) ($ok3$0 Bool) ($ok4$0 Bool) ($abs~0.val$0 Int) ($abs~0.absval$0 Int) ($Initially~0.i$0 Bool) ($Initially~0.o$0 Bool) ($envposx$1 Int) ($envposy$1 Int) ($posx$1 Int) ($posy$1 Int) ($ok1$1 Bool) ($ok2$1 Bool) ($ok3$1 Bool) ($ok4$1 Bool) ($abs~0.val$1 Int) ($abs~0.absval$1 Int) ($Initially~0.i$1 Bool) ($Initially~0.o$1 Bool)) Bool (and (= $abs~0.val$1 (- $envposx$1 $posx$0)) (= $abs~0.absval$1 (ite (< $abs~0.val$1 0) (* (- 0 1) $abs~0.val$1) $abs~0.val$1)) (= $ok1$1 (and (> $posx$1 (- 0 2)) (< $posx$1 2))) (= $ok2$1 (ite %init true (and (>= $posx$1 (- $envposx$1 1)) (<= $posx$1 (+ $envposx$1 1))))) (= $ok3$1 $Initially~0.o$1) (= $ok4$1 (ite %init true (and (>= $posy$1 (- $envposy$1 1)) (<= $posy$1 (+ $envposy$1 1))))) (= $Initially~0.i$1 (and (= $posx$1 0) (= $posy$1 0))) (= $Initially~0.o$1 (ite %init $Initially~0.i$1 true)) (<= $abs~0.absval$1 1)))
(declare-fun %init () Bool)
(declare-fun $envposx$~1 () Int)
(declare-fun $envposy$~1 () Int)
(declare-fun $posx$~1 () Int)
(declare-fun $posy$~1 () Int)
(declare-fun $ok1$~1 () Bool)
(declare-fun $ok2$~1 () Bool)
(declare-fun $ok3$~1 () Bool)
(declare-fun $ok4$~1 () Bool)
(declare-fun $abs~0.val$~1 () Int)
(declare-fun $abs~0.absval$~1 () Int)
(declare-fun $Initially~0.i$~1 () Bool)
(declare-fun $Initially~0.o$~1 () Bool)
(declare-fun $envposx$0 () Int)
(declare-fun $envposy$0 () Int)
(declare-fun $posx$2 () Int)
(declare-fun $posy$2 () Int)
(declare-fun $ok1$2 () Bool)
(declare-fun $ok2$2 () Bool)
(declare-fun $ok3$2 () Bool)
(declare-fun $ok4$2 () Bool)
(declare-fun $abs~0.val$2 () Int)
(declare-fun $abs~0.absval$2 () Int)
(declare-fun $Initially~0.i$2 () Bool)
(declare-fun $Initially~0.o$2 () Bool)
(assert (and (T %init $envposx$~1 $envposy$~1 $posx$~1 $posy$~1 $ok1$~1 $ok2$~1 $ok3$~1 $ok4$~1 $abs~0.val$~1 $abs~0.absval$~1 $Initially~0.i$~1 $Initially~0.o$~1 $envposx$0 $envposy$0 $posx$2 $posy$2 $ok1$2 $ok2$2 $ok3$2 $ok4$2 $abs~0.val$2 $abs~0.absval$2 $Initially~0.i$2 $Initially~0.o$2) (and $ok1$2 $ok2$2 $ok3$2 $ok4$2)))
